(set-info :smt-lib-version 2.6)
(set-logic QF_LRA)
(set-info :source |
TLP-GP automated DTP to SMT-LIB encoding for planning
by F.Maris and P.Regnier, IRIT - Universite Paul Sabatier, Toulouse

|)
(set-info :category "industrial")
(set-info :status sat)
(declare-fun St_spy_variable () Real)
(declare-fun t_Init_0 () Real)
(declare-fun t_Goal_6 () Real)
(declare-fun t_BAKE_CERAMIC2_p2_k2_2 () Real)
(declare-fun t_TREAT_CERAMIC2_p2_3 () Real)
(declare-fun t_BAKE_CERAMIC2_p2_k2_3 () Real)
(declare-fun t_BAKE_CERAMIC1_p1_k2_2 () Real)
(declare-fun t_TREAT_CERAMIC1_p1_3 () Real)
(declare-fun t_FIRE_KILN2_k2_2 () Real)
(declare-fun t_BAKE_CERAMIC1_p1_k2_3 () Real)
(declare-fun t_MAKE_STRUCTURE_p1_p2_4 () Real)
(declare-fun t_BAKE_STRUCTURE_p1_p2_k1_5 () Real)
(declare-fun t_BAKE_CERAMIC2_p4_k2_2 () Real)
(declare-fun t_TREAT_CERAMIC2_p4_3 () Real)
(declare-fun t_BAKE_CERAMIC2_p4_k2_3 () Real)
(declare-fun t_BAKE_CERAMIC2_p3_k2_2 () Real)
(declare-fun t_TREAT_CERAMIC2_p3_3 () Real)
(declare-fun t_BAKE_CERAMIC2_p3_k2_3 () Real)
(declare-fun t_MAKE_STRUCTURE_p3_p4_4 () Real)
(declare-fun t_BAKE_STRUCTURE_p3_p4_k1_5 () Real)
(declare-fun t_BAKE_CERAMIC3_p6_k2_2 () Real)
(declare-fun t_TREAT_CERAMIC3_p6_3 () Real)
(declare-fun t_BAKE_CERAMIC3_p6_k1_3 () Real)
(declare-fun t_BAKE_CERAMIC2_p5_k2_2 () Real)
(declare-fun t_TREAT_CERAMIC2_p5_3 () Real)
(declare-fun t_BAKE_CERAMIC2_p5_k2_3 () Real)
(declare-fun t_MAKE_STRUCTURE_p5_p6_4 () Real)
(declare-fun t_BAKE_STRUCTURE_p5_p6_k1_5 () Real)
(declare-fun t_BAKE_CERAMIC3_p8_k2_2 () Real)
(declare-fun t_TREAT_CERAMIC3_p8_3 () Real)
(declare-fun t_BAKE_CERAMIC3_p8_k1_3 () Real)
(declare-fun t_FIRE_KILN2_k2_1 () Real)
(declare-fun t_BAKE_CERAMIC3_p7_k2_2 () Real)
(declare-fun t_TREAT_CERAMIC3_p7_3 () Real)
(declare-fun t_FIRE_KILN1_k1_2 () Real)
(declare-fun t_BAKE_CERAMIC3_p7_k1_3 () Real)
(declare-fun t_MAKE_STRUCTURE_p7_p8_4 () Real)
(declare-fun t_BAKE_STRUCTURE_p7_p8_k1_5 () Real)
(declare-fun t_FIRE_KILN1_k1_1 () Real)
(declare-fun t_BAKE_CERAMIC3_p9_k1_2 () Real)
(assert (let ((?v_18 (- t_Goal_6 t_BAKE_STRUCTURE_p1_p2_k1_5)) (?v_30 (- t_Goal_6 t_BAKE_STRUCTURE_p3_p4_k1_5)) (?v_38 (- t_Goal_6 t_BAKE_STRUCTURE_p5_p6_k1_5)) (?v_48 (- t_Goal_6 t_BAKE_STRUCTURE_p7_p8_k1_5)) (?v_50 (- t_Goal_6 t_BAKE_CERAMIC3_p9_k1_2)) (?v_44 (- t_BAKE_CERAMIC3_p7_k2_2 t_FIRE_KILN2_k2_1))) (let ((?v_2 (<= ?v_44 15)) (?v_39 (- t_BAKE_CERAMIC3_p8_k2_2 t_FIRE_KILN2_k2_1))) (let ((?v_3 (<= ?v_39 15)) (?v_36 (- t_BAKE_CERAMIC2_p5_k2_3 t_FIRE_KILN2_k2_1))) (let ((?v_4 (<= ?v_36 10)) (?v_34 (- t_BAKE_CERAMIC2_p5_k2_2 t_FIRE_KILN2_k2_1))) (let ((?v_5 (<= ?v_34 10)) (?v_31 (- t_BAKE_CERAMIC3_p6_k2_2 t_FIRE_KILN2_k2_1))) (let ((?v_6 (<= ?v_31 15)) (?v_24 (- t_BAKE_CERAMIC2_p3_k2_3 t_FIRE_KILN2_k2_1))) (let ((?v_7 (<= ?v_24 10)) (?v_22 (- t_BAKE_CERAMIC2_p3_k2_2 t_FIRE_KILN2_k2_1))) (let ((?v_8 (<= ?v_22 10)) (?v_21 (- t_BAKE_CERAMIC2_p4_k2_3 t_FIRE_KILN2_k2_1))) (let ((?v_9 (<= ?v_21 10)) (?v_19 (- t_BAKE_CERAMIC2_p4_k2_2 t_FIRE_KILN2_k2_1))) (let ((?v_10 (<= ?v_19 10)) (?v_14 (- t_BAKE_CERAMIC1_p1_k2_2 t_FIRE_KILN2_k2_1))) (let ((?v_11 (<= ?v_14 5)) (?v_13 (- t_BAKE_CERAMIC2_p2_k2_3 t_FIRE_KILN2_k2_1))) (let ((?v_12 (<= ?v_13 10)) (?v_0 (- t_BAKE_CERAMIC2_p2_k2_2 t_FIRE_KILN2_k2_1)) (?v_1 (- t_TREAT_CERAMIC2_p2_3 t_BAKE_CERAMIC2_p2_k2_2)) (?v_15 (- t_TREAT_CERAMIC1_p1_3 t_BAKE_CERAMIC1_p1_k2_2)) (?v_16 (- t_BAKE_CERAMIC1_p1_k2_3 t_FIRE_KILN2_k2_2)) (?v_49 (- t_BAKE_CERAMIC3_p9_k1_2 t_FIRE_KILN1_k1_1))) (let ((?v_25 (<= ?v_49 3)) (?v_47 (- t_BAKE_STRUCTURE_p7_p8_k1_5 t_FIRE_KILN1_k1_1))) (let ((?v_26 (<= ?v_47 5)) (?v_37 (- t_BAKE_STRUCTURE_p5_p6_k1_5 t_FIRE_KILN1_k1_1))) (let ((?v_27 (<= ?v_37 5)) (?v_29 (- t_BAKE_STRUCTURE_p3_p4_k1_5 t_FIRE_KILN1_k1_1))) (let ((?v_28 (<= ?v_29 5)) (?v_17 (- t_BAKE_STRUCTURE_p1_p2_k1_5 t_FIRE_KILN1_k1_1)) (?v_20 (- t_TREAT_CERAMIC2_p4_3 t_BAKE_CERAMIC2_p4_k2_2)) (?v_23 (- t_TREAT_CERAMIC2_p3_3 t_BAKE_CERAMIC2_p3_k2_2)) (?v_32 (- t_TREAT_CERAMIC3_p6_3 t_BAKE_CERAMIC3_p6_k2_2)) (?v_46 (- t_BAKE_CERAMIC3_p7_k1_3 t_FIRE_KILN1_k1_2))) (let ((?v_41 (<= ?v_46 3)) (?v_43 (- t_BAKE_CERAMIC3_p8_k1_3 t_FIRE_KILN1_k1_2))) (let ((?v_42 (<= ?v_43 3)) (?v_33 (- t_BAKE_CERAMIC3_p6_k1_3 t_FIRE_KILN1_k1_2)) (?v_35 (- t_TREAT_CERAMIC2_p5_3 t_BAKE_CERAMIC2_p5_k2_2)) (?v_40 (- t_TREAT_CERAMIC3_p8_3 t_BAKE_CERAMIC3_p8_k2_2)) (?v_45 (- t_TREAT_CERAMIC3_p7_3 t_BAKE_CERAMIC3_p7_k2_2)) (?v_58 (- t_BAKE_CERAMIC1_p1_k2_3 t_FIRE_KILN2_k2_1)) (?v_57 (> (- t_FIRE_KILN2_k2_2 t_FIRE_KILN2_k2_1) 20))) (let ((?v_53 (or (<= ?v_58 5) ?v_57)) (?v_54 (> (- t_FIRE_KILN2_k2_1 t_FIRE_KILN2_k2_2) 20)) (?v_52 (- t_BAKE_CERAMIC2_p2_k2_2 t_BAKE_CERAMIC2_p2_k2_3)) (?v_51 (- t_BAKE_CERAMIC2_p2_k2_3 t_BAKE_CERAMIC2_p2_k2_2)) (?v_56 (- t_BAKE_CERAMIC1_p1_k2_2 t_BAKE_CERAMIC1_p1_k2_3)) (?v_55 (- t_BAKE_CERAMIC1_p1_k2_3 t_BAKE_CERAMIC1_p1_k2_2)) (?v_81 (- t_BAKE_CERAMIC3_p7_k1_3 t_FIRE_KILN1_k1_1)) (?v_59 (> (- t_FIRE_KILN1_k1_2 t_FIRE_KILN1_k1_1) 8))) (let ((?v_64 (or (<= ?v_81 3) ?v_59)) (?v_78 (- t_BAKE_CERAMIC3_p8_k1_3 t_FIRE_KILN1_k1_1))) (let ((?v_65 (or (<= ?v_78 3) ?v_59)) (?v_70 (- t_BAKE_CERAMIC3_p6_k1_3 t_FIRE_KILN1_k1_1))) (let ((?v_66 (or (<= ?v_70 3) ?v_59)) (?v_67 (> (- t_FIRE_KILN1_k1_1 t_FIRE_KILN1_k1_2) 8)) (?v_61 (- t_BAKE_CERAMIC2_p4_k2_2 t_BAKE_CERAMIC2_p4_k2_3)) (?v_60 (- t_BAKE_CERAMIC2_p4_k2_3 t_BAKE_CERAMIC2_p4_k2_2)) (?v_63 (- t_BAKE_CERAMIC2_p3_k2_2 t_BAKE_CERAMIC2_p3_k2_3)) (?v_62 (- t_BAKE_CERAMIC2_p3_k2_3 t_BAKE_CERAMIC2_p3_k2_2)) (?v_69 (- t_BAKE_CERAMIC3_p6_k2_2 t_BAKE_CERAMIC3_p6_k1_3)) (?v_68 (- t_BAKE_CERAMIC3_p6_k1_3 t_BAKE_CERAMIC3_p6_k2_2))) (let ((?v_76 (or (<= (- t_BAKE_CERAMIC3_p9_k1_2 t_FIRE_KILN1_k1_2) 3) ?v_67)) (?v_77 (or (<= (- t_BAKE_STRUCTURE_p7_p8_k1_5 t_FIRE_KILN1_k1_2) 5) ?v_67)) (?v_73 (- t_BAKE_STRUCTURE_p5_p6_k1_5 t_FIRE_KILN1_k1_2)) (?v_72 (- t_BAKE_CERAMIC2_p5_k2_2 t_BAKE_CERAMIC2_p5_k2_3)) (?v_71 (- t_BAKE_CERAMIC2_p5_k2_3 t_BAKE_CERAMIC2_p5_k2_2)) (?v_75 (- t_BAKE_CERAMIC3_p8_k2_2 t_BAKE_CERAMIC3_p8_k1_3)) (?v_74 (- t_BAKE_CERAMIC3_p8_k1_3 t_BAKE_CERAMIC3_p8_k2_2)) (?v_80 (- t_BAKE_CERAMIC3_p7_k2_2 t_BAKE_CERAMIC3_p7_k1_3)) (?v_79 (- t_BAKE_CERAMIC3_p7_k1_3 t_BAKE_CERAMIC3_p7_k2_2))) (and (= St_spy_variable (+ 1 t_Init_0)) (>= t_Goal_6 t_Init_0) (>= (- t_BAKE_CERAMIC2_p2_k2_2 t_Init_0) 0) (>= (- t_Goal_6 t_BAKE_CERAMIC2_p2_k2_2) 10) (>= (- t_TREAT_CERAMIC2_p2_3 t_Init_0) 0) (>= (- t_Goal_6 t_TREAT_CERAMIC2_p2_3) 2) (>= (- t_BAKE_CERAMIC2_p2_k2_3 t_Init_0) 0) (>= (- t_Goal_6 t_BAKE_CERAMIC2_p2_k2_3) 10) (>= (- t_BAKE_CERAMIC1_p1_k2_2 t_Init_0) 0) (>= (- t_Goal_6 t_BAKE_CERAMIC1_p1_k2_2) 15) (>= (- t_TREAT_CERAMIC1_p1_3 t_Init_0) 0) (>= (- t_Goal_6 t_TREAT_CERAMIC1_p1_3) 3) (>= (- t_FIRE_KILN2_k2_2 t_Init_0) 0) (>= (- t_Goal_6 t_FIRE_KILN2_k2_2) 20) (>= (- t_BAKE_CERAMIC1_p1_k2_3 t_Init_0) 0) (>= (- t_Goal_6 t_BAKE_CERAMIC1_p1_k2_3) 15) (>= (- t_MAKE_STRUCTURE_p1_p2_4 t_Init_0) 0) (>= (- t_Goal_6 t_MAKE_STRUCTURE_p1_p2_4) 1) (>= (- t_BAKE_STRUCTURE_p1_p2_k1_5 t_Init_0) 0) (>= ?v_18 3) (>= (- t_BAKE_CERAMIC2_p4_k2_2 t_Init_0) 0) (>= (- t_Goal_6 t_BAKE_CERAMIC2_p4_k2_2) 10) (>= (- t_TREAT_CERAMIC2_p4_3 t_Init_0) 0) (>= (- t_Goal_6 t_TREAT_CERAMIC2_p4_3) 2) (>= (- t_BAKE_CERAMIC2_p4_k2_3 t_Init_0) 0) (>= (- t_Goal_6 t_BAKE_CERAMIC2_p4_k2_3) 10) (>= (- t_BAKE_CERAMIC2_p3_k2_2 t_Init_0) 0) (>= (- t_Goal_6 t_BAKE_CERAMIC2_p3_k2_2) 10) (>= (- t_TREAT_CERAMIC2_p3_3 t_Init_0) 0) (>= (- t_Goal_6 t_TREAT_CERAMIC2_p3_3) 2) (>= (- t_BAKE_CERAMIC2_p3_k2_3 t_Init_0) 0) (>= (- t_Goal_6 t_BAKE_CERAMIC2_p3_k2_3) 10) (>= (- t_MAKE_STRUCTURE_p3_p4_4 t_Init_0) 0) (>= (- t_Goal_6 t_MAKE_STRUCTURE_p3_p4_4) 1) (>= (- t_BAKE_STRUCTURE_p3_p4_k1_5 t_Init_0) 0) (>= ?v_30 3) (>= (- t_BAKE_CERAMIC3_p6_k2_2 t_Init_0) 0) (>= (- t_Goal_6 t_BAKE_CERAMIC3_p6_k2_2) 5) (>= (- t_TREAT_CERAMIC3_p6_3 t_Init_0) 0) (>= (- t_Goal_6 t_TREAT_CERAMIC3_p6_3) 1) (>= (- t_BAKE_CERAMIC3_p6_k1_3 t_Init_0) 0) (>= (- t_Goal_6 t_BAKE_CERAMIC3_p6_k1_3) 5) (>= (- t_BAKE_CERAMIC2_p5_k2_2 t_Init_0) 0) (>= (- t_Goal_6 t_BAKE_CERAMIC2_p5_k2_2) 10) (>= (- t_TREAT_CERAMIC2_p5_3 t_Init_0) 0) (>= (- t_Goal_6 t_TREAT_CERAMIC2_p5_3) 2) (>= (- t_BAKE_CERAMIC2_p5_k2_3 t_Init_0) 0) (>= (- t_Goal_6 t_BAKE_CERAMIC2_p5_k2_3) 10) (>= (- t_MAKE_STRUCTURE_p5_p6_4 t_Init_0) 0) (>= (- t_Goal_6 t_MAKE_STRUCTURE_p5_p6_4) 1) (>= (- t_BAKE_STRUCTURE_p5_p6_k1_5 t_Init_0) 0) (>= ?v_38 3) (>= (- t_BAKE_CERAMIC3_p8_k2_2 t_Init_0) 0) (>= (- t_Goal_6 t_BAKE_CERAMIC3_p8_k2_2) 5) (>= (- t_TREAT_CERAMIC3_p8_3 t_Init_0) 0) (>= (- t_Goal_6 t_TREAT_CERAMIC3_p8_3) 1) (>= (- t_BAKE_CERAMIC3_p8_k1_3 t_Init_0) 0) (>= (- t_Goal_6 t_BAKE_CERAMIC3_p8_k1_3) 5) (>= (- t_FIRE_KILN2_k2_1 t_Init_0) 0) (>= (- t_Goal_6 t_FIRE_KILN2_k2_1) 20) (>= (- t_BAKE_CERAMIC3_p7_k2_2 t_Init_0) 0) (>= (- t_Goal_6 t_BAKE_CERAMIC3_p7_k2_2) 5) (>= (- t_TREAT_CERAMIC3_p7_3 t_Init_0) 0) (>= (- t_Goal_6 t_TREAT_CERAMIC3_p7_3) 1) (>= (- t_FIRE_KILN1_k1_2 t_Init_0) 0) (>= (- t_Goal_6 t_FIRE_KILN1_k1_2) 8) (>= (- t_BAKE_CERAMIC3_p7_k1_3 t_Init_0) 0) (>= (- t_Goal_6 t_BAKE_CERAMIC3_p7_k1_3) 5) (>= (- t_MAKE_STRUCTURE_p7_p8_4 t_Init_0) 0) (>= (- t_Goal_6 t_MAKE_STRUCTURE_p7_p8_4) 1) (>= (- t_BAKE_STRUCTURE_p7_p8_k1_5 t_Init_0) 0) (>= ?v_48 3) (>= (- t_FIRE_KILN1_k1_1 t_Init_0) 0) (>= (- t_Goal_6 t_FIRE_KILN1_k1_1) 8) (>= (- t_BAKE_CERAMIC3_p9_k1_2 t_Init_0) 0) (>= ?v_50 5) ?v_2 ?v_3 ?v_4 ?v_5 ?v_6 ?v_7 ?v_8 ?v_9 ?v_10 ?v_11 ?v_12 (<= ?v_0 10) (< ?v_0 10) (>= ?v_0 2) (<= ?v_1 8) (>= ?v_1 0) (>= (- t_MAKE_STRUCTURE_p1_p2_4 t_TREAT_CERAMIC2_p2_3) 2) ?v_2 ?v_3 ?v_4 ?v_5 ?v_6 ?v_7 ?v_8 ?v_9 ?v_10 ?v_11 ?v_12 (< ?v_13 10) (>= ?v_13 2) (>= (- t_MAKE_STRUCTURE_p1_p2_4 t_BAKE_CERAMIC2_p2_k2_3) 10) ?v_2 ?v_3 ?v_4 ?v_5 ?v_6 ?v_7 ?v_8 ?v_9 ?v_10 ?v_11 (< ?v_14 5) (>= ?v_14 2) (<= ?v_15 12) (>= ?v_15 0) (>= (- t_MAKE_STRUCTURE_p1_p2_4 t_TREAT_CERAMIC1_p1_3) 3) (<= ?v_16 5) (>= ?v_16 2) (>= (- t_MAKE_STRUCTURE_p1_p2_4 t_BAKE_CERAMIC1_p1_k2_3) 15) (>= (- t_BAKE_STRUCTURE_p1_p2_k1_5 t_MAKE_STRUCTURE_p1_p2_4) 1) ?v_25 ?v_26 ?v_27 ?v_28 (<= ?v_17 5) (< ?v_17 5) (>= ?v_17 1) (>= ?v_18 4) ?v_2 ?v_3 ?v_4 ?v_5 ?v_6 ?v_7 ?v_8 ?v_9 ?v_10 (< ?v_19 10) (>= ?v_19 2) (<= ?v_20 8) (>= ?v_20 0) (>= (- t_MAKE_STRUCTURE_p3_p4_4 t_TREAT_CERAMIC2_p4_3) 2) ?v_2 ?v_3 ?v_4 ?v_5 ?v_6 ?v_7 ?v_8 ?v_9 (< ?v_21 10) (>= ?v_21 2) (>= (- t_MAKE_STRUCTURE_p3_p4_4 t_BAKE_CERAMIC2_p4_k2_3) 10) ?v_2 ?v_3 ?v_4 ?v_5 ?v_6 ?v_7 ?v_8 (< ?v_22 10) (>= ?v_22 2) (<= ?v_23 8) (>= ?v_23 0) (>= (- t_MAKE_STRUCTURE_p3_p4_4 t_TREAT_CERAMIC2_p3_3) 2) ?v_2 ?v_3 ?v_4 ?v_5 ?v_6 ?v_7 (< ?v_24 10) (>= ?v_24 2) (>= (- t_MAKE_STRUCTURE_p3_p4_4 t_BAKE_CERAMIC2_p3_k2_3) 10) (>= (- t_BAKE_STRUCTURE_p3_p4_k1_5 t_MAKE_STRUCTURE_p3_p4_4) 1) ?v_25 ?v_26 ?v_27 ?v_28 (< ?v_29 5) (>= ?v_29 1) (>= ?v_30 4) ?v_2 ?v_3 ?v_4 ?v_5 ?v_6 (< ?v_31 15) (>= ?v_31 2) (<= ?v_32 4) (>= ?v_32 0) (>= (- t_MAKE_STRUCTURE_p5_p6_4 t_TREAT_CERAMIC3_p6_3) 1) ?v_41 ?v_42 (<= ?v_33 3) (< ?v_33 3) (>= ?v_33 1) (>= (- t_MAKE_STRUCTURE_p5_p6_4 t_BAKE_CERAMIC3_p6_k1_3) 5) ?v_2 ?v_3 ?v_4 ?v_5 (< ?v_34 10) (>= ?v_34 2) (<= ?v_35 8) (>= ?v_35 0) (>= (- t_MAKE_STRUCTURE_p5_p6_4 t_TREAT_CERAMIC2_p5_3) 2) ?v_2 ?v_3 ?v_4 (< ?v_36 10) (>= ?v_36 2) (>= (- t_MAKE_STRUCTURE_p5_p6_4 t_BAKE_CERAMIC2_p5_k2_3) 10) (>= (- t_BAKE_STRUCTURE_p5_p6_k1_5 t_MAKE_STRUCTURE_p5_p6_4) 1) ?v_25 ?v_26 ?v_27 (< ?v_37 5) (>= ?v_37 1) (>= ?v_38 4) ?v_2 ?v_3 (< ?v_39 15) (>= ?v_39 2) (<= ?v_40 4) (>= ?v_40 0) (>= (- t_MAKE_STRUCTURE_p7_p8_4 t_TREAT_CERAMIC3_p8_3) 1) ?v_41 ?v_42 (< ?v_43 3) (>= ?v_43 1) (>= (- t_MAKE_STRUCTURE_p7_p8_4 t_BAKE_CERAMIC3_p8_k1_3) 5) ?v_2 (>= ?v_44 2) (<= ?v_45 4) (>= ?v_45 0) (>= (- t_MAKE_STRUCTURE_p7_p8_4 t_TREAT_CERAMIC3_p7_3) 1) ?v_41 (>= ?v_46 1) (>= (- t_MAKE_STRUCTURE_p7_p8_4 t_BAKE_CERAMIC3_p7_k1_3) 5) (>= (- t_BAKE_STRUCTURE_p7_p8_k1_5 t_MAKE_STRUCTURE_p7_p8_4) 1) ?v_25 ?v_26 (< ?v_47 5) (>= ?v_47 1) (>= ?v_48 4) ?v_25 (>= ?v_49 1) (>= ?v_50 6) ?v_53 (or ?v_54 (< (- t_BAKE_CERAMIC2_p2_k2_2 t_FIRE_KILN2_k2_2) 10)) (or (>= (- t_BAKE_CERAMIC2_p2_k2_2 t_MAKE_STRUCTURE_p1_p2_4) 1) (< ?v_52 7)) (or (<= ?v_51 0) (> ?v_51 10)) (or (>= ?v_52 3) (> ?v_51 7)) (or (> ?v_52 10) (< (- t_TREAT_CERAMIC2_p2_3 t_BAKE_CERAMIC2_p2_k2_3) 8)) ?v_53 (or ?v_54 (< (- t_BAKE_CERAMIC2_p2_k2_3 t_FIRE_KILN2_k2_2) 10)) ?v_53 (or ?v_54 (< (- t_BAKE_CERAMIC1_p1_k2_2 t_FIRE_KILN2_k2_2) 5)) (or (>= (- t_BAKE_CERAMIC1_p1_k2_2 t_MAKE_STRUCTURE_p1_p2_4) 1) (< ?v_56 10)) (or (<= ?v_55 0) (> ?v_55 15)) (or (>= ?v_56 5) (> ?v_55 10)) (or (> ?v_56 15) (< (- t_TREAT_CERAMIC1_p1_3 t_BAKE_CERAMIC1_p1_k2_3) 12)) (or (<= (- t_BAKE_CERAMIC3_p7_k2_2 t_FIRE_KILN2_k2_2) 15) ?v_54) (or (<= (- t_BAKE_CERAMIC3_p8_k2_2 t_FIRE_KILN2_k2_2) 15) ?v_54) (or (<= (- t_BAKE_CERAMIC2_p5_k2_3 t_FIRE_KILN2_k2_2) 10) ?v_54) (or (<= (- t_BAKE_CERAMIC2_p5_k2_2 t_FIRE_KILN2_k2_2) 10) ?v_54) (or (<= (- t_BAKE_CERAMIC3_p6_k2_2 t_FIRE_KILN2_k2_2) 15) ?v_54) (or (<= (- t_BAKE_CERAMIC2_p3_k2_3 t_FIRE_KILN2_k2_2) 10) ?v_54) (or (<= (- t_BAKE_CERAMIC2_p3_k2_2 t_FIRE_KILN2_k2_2) 10) ?v_54) (or (<= (- t_BAKE_CERAMIC2_p4_k2_3 t_FIRE_KILN2_k2_2) 10) ?v_54) (or (<= (- t_BAKE_CERAMIC2_p4_k2_2 t_FIRE_KILN2_k2_2) 10) ?v_54) (or ?v_57 (< ?v_58 5)) ?v_64 ?v_65 ?v_66 (or ?v_67 (< (- t_BAKE_STRUCTURE_p1_p2_k1_5 t_FIRE_KILN1_k1_2) 5)) (or (>= (- t_BAKE_CERAMIC2_p4_k2_2 t_MAKE_STRUCTURE_p3_p4_4) 1) (< ?v_61 7)) (or (<= ?v_60 0) (> ?v_60 10)) (or (>= ?v_61 3) (> ?v_60 7)) (or (> ?v_61 10) (< (- t_TREAT_CERAMIC2_p4_3 t_BAKE_CERAMIC2_p4_k2_3) 8)) (or (>= (- t_BAKE_CERAMIC2_p3_k2_2 t_MAKE_STRUCTURE_p3_p4_4) 1) (< ?v_63 7)) (or (<= ?v_62 0) (> ?v_62 10)) (or (>= ?v_63 3) (> ?v_62 7)) (or (> ?v_63 10) (< (- t_TREAT_CERAMIC2_p3_3 t_BAKE_CERAMIC2_p3_k2_3) 8)) ?v_64 ?v_65 ?v_66 (or ?v_67 (< (- t_BAKE_STRUCTURE_p3_p4_k1_5 t_FIRE_KILN1_k1_2) 5)) (or (>= (- t_BAKE_CERAMIC3_p6_k2_2 t_MAKE_STRUCTURE_p5_p6_4) 1) (< ?v_69 4)) (or (<= ?v_68 0) (> ?v_68 5)) (or (>= ?v_69 1) (> ?v_68 4)) (or (> ?v_69 5) (< (- t_TREAT_CERAMIC3_p6_3 t_BAKE_CERAMIC3_p6_k1_3) 4)) ?v_76 ?v_77 (or (<= ?v_73 5) ?v_67) (or ?v_59 (< ?v_70 3)) (or (>= (- t_BAKE_CERAMIC2_p5_k2_2 t_MAKE_STRUCTURE_p5_p6_4) 1) (< ?v_72 7)) (or (<= ?v_71 0) (> ?v_71 10)) (or (>= ?v_72 3) (> ?v_71 7)) (or (> ?v_72 10) (< (- t_TREAT_CERAMIC2_p5_3 t_BAKE_CERAMIC2_p5_k2_3) 8)) ?v_64 ?v_65 (or ?v_67 (< ?v_73 5)) (or (>= (- t_BAKE_CERAMIC3_p8_k2_2 t_MAKE_STRUCTURE_p7_p8_4) 1) (< ?v_75 4)) (or (<= ?v_74 0) (> ?v_74 5)) (or (>= ?v_75 1) (> ?v_74 4)) (or (> ?v_75 5) (< (- t_TREAT_CERAMIC3_p8_3 t_BAKE_CERAMIC3_p8_k1_3) 4)) ?v_76 ?v_77 (or ?v_59 (< ?v_78 3)) (or (>= (- t_BAKE_CERAMIC3_p7_k2_2 t_MAKE_STRUCTURE_p7_p8_4) 1) (< ?v_80 4)) (or (<= ?v_79 0) (> ?v_79 5)) (or (>= ?v_80 1) (> ?v_79 4)) (or (> ?v_80 5) (< (- t_TREAT_CERAMIC3_p7_3 t_BAKE_CERAMIC3_p7_k1_3) 4)) ?v_76 ?v_77 (or ?v_59 (< ?v_81 3)))))))))))))))))))))))))))
(check-sat)
(exit)
